c turning on binary mode checking
c parsing input formula with 5 variables and 32 clauses
c finished parsing
c detected empty clause; start verification via backward checking
c 32 of 32 clauses in core
c 33 of 34 lemmas in core using 89 resolution steps
c 3 RAT lemmas in core; 0 redundant literals in core lemmas
s VERIFIED
c verification time: 0.068 seconds
